
(set-logic ALL) 

(declare-datatype MyList ((Nil) (Cons (head Real) (tail MyList)) )) 
(declare-fun l0 () MyList) 
(declare-fun l1 () MyList) 
(declare-fun l2 () MyList) 
(declare-fun l3 () MyList) 
(declare-fun i0 () Real) 
(declare-fun i1 () Real) 
(assert (and (= l0 l2) (= l2 l0) (= l2 l3) (= l0 Nil)) )
(assert (is-Nil Nil) )
(assert (and (is-Cons Nil) (is-Cons Nil) (= l3 Nil)) )
(assert (is-Nil Nil) )
(assert (is-Nil Nil) )
(assert (= l3 Nil) )
(assert (is-Nil l2) )
(assert (or (is-Cons Nil) (= l0 Nil)) )
(check-sat)
